NAME : problems/30-tsp/instance-22.tsp
COMMENT : No Comment
TYPE : TSP
DIMENSION: 30
EDGE_WEIGHT_TYPE : EUC_2D
NODE_COORD_SECTION
1 1593 6768 
2 3036 5846 
3 6899 4463 
4 8199 2739 
5 6493 7992 
6 9761 4316 
7 7025 3053 
8 9569 9184 
9 9944 9951 
10 2949 3998 
11 8164 7805 
12 5716 6551 
13 4535 3173 
14 8545 1014 
15 2463 5370 
16 1306 5573 
17 5605 9946 
18 70 7415 
19 784 6927 
20 1243 4823 
21 4118 1529 
22 5632 22 
23 2860 4833 
24 4212 5482 
25 4836 5689 
26 7797 5099 
27 723 2977 
28 8384 7964 
29 5594 9034 
30 9464 31 
EOF
